p cnf 160 622
c p weight -5 1 0
c p weight 5 -1 0
c p weight -7 1 0
c p weight 7 -1 0
c p weight 11 6.12323399573676603586882014729198302312846062338790031898128063403419218957424163818359375E-17 0
c p weight -11 1 0
c p weight 12 1 0
c p weight -12 1 0
c p weight -9 1 0
c p weight 9 -1 0
c p weight -13 1 0
c p weight 13 -1 0
c p weight -15 1 0
c p weight 15 -1 0
c p weight -17 1 0
c p weight 17 -1 0
c p weight 21 6.12323399573676603586882014729198302312846062338790031898128063403419218957424163818359375E-17 0
c p weight -21 1 0
c p weight 22 1 0
c p weight -22 1 0
c p weight -19 1 0
c p weight 19 -1 0
c p weight -23 1 0
c p weight 23 -1 0
c p weight -25 1 0
c p weight 25 -1 0
c p weight 30 0.262771019321841325933064581477083265781402587890625 0
c p weight -30 1 0
c p weight 31 0.964858223473563203498315488104708492755889892578125 0
c p weight -31 1 0
c p weight -28 1 0
c p weight 28 -1 0
c p weight -32 1 0
c p weight 32 -1 0
c p weight -35 1 0
c p weight 35 -1 0
c p weight 39 6.12323399573676603586882014729198302312846062338790031898128063403419218957424163818359375E-17 0
c p weight -39 1 0
c p weight 40 1 0
c p weight -40 1 0
c p weight -37 1 0
c p weight 37 -1 0
c p weight -41 1 0
c p weight 41 -1 0
c p weight -43 1 0
c p weight 43 -1 0
c p weight 46 6.12323399573676603586882014729198302312846062338790031898128063403419218957424163818359375E-17 0
c p weight -46 1 0
c p weight 47 1 0
c p weight -47 1 0
c p weight -44 1 0
c p weight 44 -1 0
c p weight -48 1 0
c p weight 48 -1 0
c p weight -50 1 0
c p weight 50 -1 0
c p weight 54 6.12323399573676603586882014729198302312846062338790031898128063403419218957424163818359375E-17 0
c p weight -54 1 0
c p weight 55 1 0
c p weight -55 1 0
c p weight -52 1 0
c p weight 52 -1 0
c p weight -56 1 0
c p weight 56 -1 0
c p weight -58 1 0
c p weight 58 -1 0
c p weight -60 1 0
c p weight 60 -1 0
c p weight 65 -0.99676534015730500204455211132881231606006622314453125 0
c p weight -65 1 0
c p weight 66 -0.080367012269288717885018513698014430701732635498046875 0
c p weight -66 1 0
c p weight -63 1 0
c p weight 63 -1 0
c p weight -67 1 0
c p weight 67 -1 0
c p weight 72 -1.8369701987210296875011296034045003113559498615810217092558787044254131615161895751953125E-16 0
c p weight -72 1 0
c p weight 73 1 0
c p weight -73 1 0
c p weight -70 1 0
c p weight 70 -1 0
c p weight 76 6.12323399573676603586882014729198302312846062338790031898128063403419218957424163818359375E-17 0
c p weight -76 1 0
c p weight 77 1 0
c p weight -77 1 0
c p weight -74 1 0
c p weight 74 -1 0
c p weight 80 -0.6551798220730618016460766739328391849994659423828125 0
c p weight -80 1 0
c p weight 81 0.75547296493541782336222922822344116866588592529296875 0
c p weight -81 1 0
c p weight -78 1 0
c p weight 78 -1 0
c p weight -82 1 0
c p weight 82 -1 0
c p weight 86 6.12323399573676603586882014729198302312846062338790031898128063403419218957424163818359375E-17 0
c p weight -86 1 0
c p weight 87 1 0
c p weight -87 1 0
c p weight -84 1 0
c p weight 84 -1 0
c p weight 90 1 0
c p weight -90 1 0
c p weight 91 -2.4492935982947064143475280589167932092513842493551601275925122536136768758296966552734375E-16 0
c p weight -91 1 0
c p weight -88 1 0
c p weight 88 -1 0
c p weight 94 6.12323399573676603586882014729198302312846062338790031898128063403419218957424163818359375E-17 0
c p weight -94 1 0
c p weight 95 1 0
c p weight -95 1 0
c p weight -92 1 0
c p weight 92 -1 0
c p weight 98 -4.28626379701573610184865766232129352060733411093618183684839095803909003734588623046875E-16 0
c p weight -98 1 0
c p weight 99 -1 0
c p weight -99 1 0
c p weight -96 1 0
c p weight 96 -1 0
c p weight -100 1 0
c p weight 100 -1 0
c p weight 105 1 0
c p weight -105 1 0
c p weight 106 0 0
c p weight -106 1 0
c p weight -103 1 0
c p weight 103 -1 0
c p weight 109 6.12323399573676603586882014729198302312846062338790031898128063403419218957424163818359375E-17 0
c p weight -109 1 0
c p weight 110 1 0
c p weight -110 1 0
c p weight -107 1 0
c p weight 107 -1 0
c p weight 113 0.9908580832591711295975756002007983624935150146484375 0
c p weight -113 1 0
c p weight 114 0.134908334953632358388375678259762935340404510498046875 0
c p weight -114 1 0
c p weight -111 1 0
c p weight 111 -1 0
c p weight 117 6.12323399573676603586882014729198302312846062338790031898128063403419218957424163818359375E-17 0
c p weight -117 1 0
c p weight 118 1 0
c p weight -118 1 0
c p weight -115 1 0
c p weight 115 -1 0
c p weight 121 -1 0
c p weight -121 1 0
c p weight 122 3.673940397442059375002259206809000622711899723162043418511757408850826323032379150390625E-16 0
c p weight -122 1 0
c p weight -119 1 0
c p weight 119 -1 0
c p weight 125 1 0
c p weight -125 1 0
c p weight 126 0 0
c p weight -126 1 0
c p weight -123 1 0
c p weight 123 -1 0
c p weight 129 6.12323399573676603586882014729198302312846062338790031898128063403419218957424163818359375E-17 0
c p weight -129 1 0
c p weight 130 1 0
c p weight -130 1 0
c p weight -127 1 0
c p weight 127 -1 0
c p weight 133 0.99085808325917101857527313768514432013034820556640625 0
c p weight -133 1 0
c p weight 134 -0.134908334953633024522190453353687189519405364990234375 0
c p weight -134 1 0
c p weight -131 1 0
c p weight 131 -1 0
c p weight 137 6.12323399573676603586882014729198302312846062338790031898128063403419218957424163818359375E-17 0
c p weight -137 1 0
c p weight 138 1 0
c p weight -138 1 0
c p weight -135 1 0
c p weight 135 -1 0
c p weight 141 -1 0
c p weight -141 1 0
c p weight 142 3.673940397442059375002259206809000622711899723162043418511757408850826323032379150390625E-16 0
c p weight -142 1 0
c p weight -139 1 0
c p weight 139 -1 0
c p weight -143 1 0
c p weight 143 -1 0
c p weight 148 -0.8900549580826666584698614315129816532135009765625 0
c p weight -148 1 0
c p weight 149 -0.45585323470659122602199886387097649276256561279296875 0
c p weight -149 1 0
c p weight -146 1 0
c p weight 146 -1 0
c p weight 152 -1.8369701987210296875011296034045003113559498615810217092558787044254131615161895751953125E-16 0
c p weight -152 1 0
c p weight 153 1 0
c p weight -153 1 0
c p weight -150 1 0
c p weight 150 -1 0
c p weight 156 6.12323399573676603586882014729198302312846062338790031898128063403419218957424163818359375E-17 0
c p weight -156 1 0
c p weight 157 1 0
c p weight -157 1 0
c p weight -154 1 0
c p weight 154 -1 0
c p weight -158 1 0
c p weight 158 -1 0
c p weight 160 0.5 0
c p weight -160 1 0
160 0
-3 0
-1 0
-5 1 0
-5 -2 0
5 -1 2 0
6 1 -2 0
6 -1 2 0
-6 1 2 0
-6 -1 -2 0
-7 1 0
-7 6 0
7 -1 -6 0
8 1 -6 0
8 -1 6 0
-8 1 6 0
-8 -1 -6 0
-9 10 0
-9 8 0
-9 -1 0
9 -10 1 -8 0
10 -1 8 0
-10 1 8 0
-11 8 0
10 -11 -1 0
-10 -11 1 0
10 11 1 -8 0
-10 11 -1 -8 0
-12 8 0
10 -12 1 0
-10 -12 -1 0
10 12 -1 -8 0
-10 12 1 -8 0
-13 10 0
-13 8 0
13 -10 -8 0
14 10 -8 0
14 -10 8 0
-14 10 8 0
-14 -10 -8 0
-15 3 0
-15 -4 0
15 -3 4 0
16 3 -4 0
16 -3 4 0
-16 3 4 0
-16 -3 -4 0
-17 3 0
-17 16 0
17 -3 -16 0
18 3 -16 0
18 -3 16 0
-18 3 16 0
-18 -3 -16 0
-19 20 0
-19 18 0
-19 -3 0
19 -20 3 -18 0
20 -3 18 0
-20 3 18 0
-21 18 0
20 -21 -3 0
-20 -21 3 0
20 21 3 -18 0
-20 21 -3 -18 0
-22 18 0
20 -22 3 0
-20 -22 -3 0
20 22 -3 -18 0
-20 22 3 -18 0
-23 20 0
-23 18 0
23 -20 -18 0
24 20 -18 0
24 -20 18 0
-24 20 18 0
-24 -20 -18 0
-25 10 0
-25 24 0
-25 20 -14 0
-25 -20 14 0
25 -10 20 14 -24 0
25 -10 -20 -14 -24 0
27 10 -20 0
27 -10 20 0
-27 10 20 0
-27 -10 -20 0
26 14 -24 0
26 -14 24 0
-26 14 24 0
-26 -14 -24 0
-28 27 0
-28 24 0
-28 -29 0
28 29 -27 -24 0
29 27 -24 0
-29 27 24 0
-30 27 0
29 -30 -24 0
-29 -30 24 0
29 30 -27 24 0
-29 30 -27 -24 0
-31 27 0
29 -31 24 0
-29 -31 -24 0
29 31 -27 -24 0
-29 31 -27 24 0
-32 10 0
-32 29 0
-32 27 -26 0
-32 -27 26 0
32 -10 27 26 -29 0
32 -10 -27 -26 -29 0
34 10 -27 0
34 -10 27 0
-34 10 27 0
-34 -10 -27 0
33 26 -29 0
33 -26 29 0
-33 26 29 0
-33 -26 -29 0
-35 10 0
-35 33 0
35 -10 -33 0
36 10 -33 0
36 -10 33 0
-36 10 33 0
-36 -10 -33 0
-37 38 0
-37 36 0
-37 -10 0
37 -38 10 -36 0
38 -10 36 0
-38 10 36 0
-39 36 0
38 -39 -10 0
-38 -39 10 0
38 39 10 -36 0
-38 39 -10 -36 0
-40 36 0
38 -40 10 0
-38 -40 -10 0
38 40 -10 -36 0
-38 40 10 -36 0
-41 38 0
-41 36 0
41 -38 -36 0
42 38 -36 0
42 -38 36 0
-42 38 36 0
-42 -38 -36 0
43 -38 0
-43 38 0
-44 45 0
-44 42 0
-44 -38 0
44 -45 38 -42 0
45 -38 42 0
-45 38 42 0
-46 42 0
45 -46 -38 0
-45 -46 38 0
45 46 38 -42 0
-45 46 -38 -42 0
-47 42 0
45 -47 38 0
-45 -47 -38 0
45 47 -38 -42 0
-45 47 38 -42 0
-48 45 0
-48 42 0
48 -45 -42 0
49 45 -42 0
49 -45 42 0
-49 45 42 0
-49 -45 -42 0
-50 34 0
-50 29 0
50 -34 -29 0
51 34 -29 0
51 -34 29 0
-51 34 29 0
-51 -34 -29 0
-52 53 0
-52 51 0
-52 -34 0
52 -53 34 -51 0
53 -34 51 0
-53 34 51 0
-54 51 0
53 -54 -34 0
-53 -54 34 0
53 54 34 -51 0
-53 54 -34 -51 0
-55 51 0
53 -55 34 0
-53 -55 -34 0
53 55 -34 -51 0
-53 55 34 -51 0
-56 53 0
-56 51 0
56 -53 -51 0
57 53 -51 0
57 -53 51 0
-57 53 51 0
-57 -53 -51 0
-58 53 0
-58 57 0
58 -53 -57 0
59 53 -57 0
59 -53 57 0
-59 53 57 0
-59 -53 -57 0
-60 53 0
-60 49 0
-60 45 -59 0
-60 -45 59 0
60 -53 45 59 -49 0
60 -53 -45 -59 -49 0
62 53 -45 0
62 -53 45 0
-62 53 45 0
-62 -53 -45 0
61 59 -49 0
61 -59 49 0
-61 59 49 0
-61 -59 -49 0
-63 62 0
-63 49 0
-63 -64 0
63 64 -62 -49 0
64 62 -49 0
-64 62 49 0
-65 62 0
64 -65 -49 0
-64 -65 49 0
64 65 -62 49 0
-64 65 -62 -49 0
-66 62 0
64 -66 49 0
-64 -66 -49 0
64 66 -62 -49 0
-64 66 -62 49 0
-67 53 0
-67 64 0
-67 62 -61 0
-67 -62 61 0
67 -53 62 61 -64 0
67 -53 -62 -61 -64 0
69 53 -62 0
69 -53 62 0
-69 53 62 0
-69 -53 -62 0
68 61 -64 0
68 -61 64 0
-68 61 64 0
-68 -61 -64 0
-70 69 0
-70 64 0
-70 -71 0
70 71 -69 -64 0
71 69 -64 0
-71 69 64 0
-72 69 0
71 -72 -64 0
-71 -72 64 0
71 72 -69 64 0
-71 72 -69 -64 0
-73 69 0
71 -73 64 0
-71 -73 -64 0
71 73 -69 -64 0
-71 73 -69 64 0
-74 75 0
-74 71 0
-74 -69 0
74 -75 69 -71 0
75 -69 71 0
-75 69 71 0
-76 71 0
75 -76 -69 0
-75 -76 69 0
75 76 69 -71 0
-75 76 -69 -71 0
-77 71 0
75 -77 69 0
-75 -77 -69 0
75 77 -69 -71 0
-75 77 69 -71 0
-78 75 0
-78 71 0
-78 -79 0
78 79 -75 -71 0
79 75 -71 0
-79 75 71 0
-80 75 0
79 -80 -71 0
-79 -80 71 0
79 80 -75 71 0
-79 80 -75 -71 0
-81 75 0
79 -81 71 0
-79 -81 -71 0
79 81 -75 -71 0
-79 81 -75 71 0
-82 53 0
-82 -68 0
82 -53 68 0
83 53 -68 0
83 -53 68 0
-83 53 68 0
-83 -53 -68 0
-84 85 0
-84 83 0
-84 -53 0
84 -85 53 -83 0
85 -53 83 0
-85 53 83 0
-86 83 0
85 -86 -53 0
-85 -86 53 0
85 86 53 -83 0
-85 86 -53 -83 0
-87 83 0
85 -87 53 0
-85 -87 -53 0
85 87 -53 -83 0
-85 87 53 -83 0
-88 85 0
-88 83 0
-88 -89 0
88 89 -85 -83 0
89 85 -83 0
-89 85 83 0
-90 85 0
89 -90 -83 0
-89 -90 83 0
89 90 -85 83 0
-89 90 -85 -83 0
-91 85 0
89 -91 83 0
-89 -91 -83 0
89 91 -85 -83 0
-89 91 -85 83 0
-92 93 0
-92 89 0
-92 -85 0
92 -93 85 -89 0
93 -85 89 0
-93 85 89 0
-94 89 0
93 -94 -85 0
-93 -94 85 0
93 94 85 -89 0
-93 94 -85 -89 0
-95 89 0
93 -95 85 0
-93 -95 -85 0
93 95 -85 -89 0
-93 95 85 -89 0
-96 93 0
-96 89 0
-96 -97 0
96 97 -93 -89 0
97 93 -89 0
-97 93 89 0
-98 93 0
97 -98 -89 0
-97 -98 89 0
97 98 -93 89 0
-97 98 -93 -89 0
-99 93 0
97 -99 89 0
-97 -99 -89 0
97 99 -93 -89 0
-97 99 -93 89 0
-100 93 0
-100 79 0
-100 75 -97 0
-100 -75 97 0
100 -93 75 97 -79 0
100 -93 -75 -97 -79 0
102 93 -75 0
102 -93 75 0
-102 93 75 0
-102 -93 -75 0
101 97 -79 0
101 -97 79 0
-101 97 79 0
-101 -97 -79 0
-103 102 0
-103 79 0
-103 -104 0
103 104 -102 -79 0
104 102 -79 0
-104 102 79 0
-105 102 0
104 -105 -79 0
-104 -105 79 0
104 105 -102 79 0
-104 105 -102 -79 0
-106 102 0
104 -106 79 0
-104 -106 -79 0
104 106 -102 -79 0
-104 106 -102 79 0
-107 108 0
-107 104 0
-107 -102 0
107 -108 102 -104 0
108 -102 104 0
-108 102 104 0
-109 104 0
108 -109 -102 0
-108 -109 102 0
108 109 102 -104 0
-108 109 -102 -104 0
-110 104 0
108 -110 102 0
-108 -110 -102 0
108 110 -102 -104 0
-108 110 102 -104 0
-111 108 0
-111 104 0
-111 -112 0
111 112 -108 -104 0
112 108 -104 0
-112 108 104 0
-113 108 0
112 -113 -104 0
-112 -113 104 0
112 113 -108 104 0
-112 113 -108 -104 0
-114 108 0
112 -114 104 0
-112 -114 -104 0
112 114 -108 -104 0
-112 114 -108 104 0
-115 116 0
-115 112 0
-115 -108 0
115 -116 108 -112 0
116 -108 112 0
-116 108 112 0
-117 112 0
116 -117 -108 0
-116 -117 108 0
116 117 108 -112 0
-116 117 -108 -112 0
-118 112 0
116 -118 108 0
-116 -118 -108 0
116 118 -108 -112 0
-116 118 108 -112 0
-119 116 0
-119 112 0
-119 -120 0
119 120 -116 -112 0
120 116 -112 0
-120 116 112 0
-121 116 0
120 -121 -112 0
-120 -121 112 0
120 121 -116 112 0
-120 121 -116 -112 0
-122 116 0
120 -122 112 0
-120 -122 -112 0
120 122 -116 -112 0
-120 122 -116 112 0
-123 93 0
-123 101 0
-123 -124 0
123 124 -93 -101 0
124 93 -101 0
-124 93 101 0
-125 93 0
124 -125 -101 0
-124 -125 101 0
124 125 -93 101 0
-124 125 -93 -101 0
-126 93 0
124 -126 101 0
-124 -126 -101 0
124 126 -93 -101 0
-124 126 -93 101 0
-127 128 0
-127 124 0
-127 -93 0
127 -128 93 -124 0
128 -93 124 0
-128 93 124 0
-129 124 0
128 -129 -93 0
-128 -129 93 0
128 129 93 -124 0
-128 129 -93 -124 0
-130 124 0
128 -130 93 0
-128 -130 -93 0
128 130 -93 -124 0
-128 130 93 -124 0
-131 128 0
-131 124 0
-131 -132 0
131 132 -128 -124 0
132 128 -124 0
-132 128 124 0
-133 128 0
132 -133 -124 0
-132 -133 124 0
132 133 -128 124 0
-132 133 -128 -124 0
-134 128 0
132 -134 124 0
-132 -134 -124 0
132 134 -128 -124 0
-132 134 -128 124 0
-135 136 0
-135 132 0
-135 -128 0
135 -136 128 -132 0
136 -128 132 0
-136 128 132 0
-137 132 0
136 -137 -128 0
-136 -137 128 0
136 137 128 -132 0
-136 137 -128 -132 0
-138 132 0
136 -138 128 0
-136 -138 -128 0
136 138 -128 -132 0
-136 138 128 -132 0
-139 136 0
-139 132 0
-139 -140 0
139 140 -136 -132 0
140 136 -132 0
-140 136 132 0
-141 136 0
140 -141 -132 0
-140 -141 132 0
140 141 -136 132 0
-140 141 -136 -132 0
-142 136 0
140 -142 132 0
-140 -142 -132 0
140 142 -136 -132 0
-140 142 -136 132 0
-143 136 0
-143 120 0
-143 116 -140 0
-143 -116 140 0
143 -136 116 140 -120 0
143 -136 -116 -140 -120 0
145 136 -116 0
145 -136 116 0
-145 136 116 0
-145 -136 -116 0
144 140 -120 0
144 -140 120 0
-144 140 120 0
-144 -140 -120 0
-146 145 0
-146 120 0
-146 -147 0
146 147 -145 -120 0
147 145 -120 0
-147 145 120 0
-148 145 0
147 -148 -120 0
-147 -148 120 0
147 148 -145 120 0
-147 148 -145 -120 0
-149 145 0
147 -149 120 0
-147 -149 -120 0
147 149 -145 -120 0
-147 149 -145 120 0
-150 136 0
-150 144 0
-150 -151 0
150 151 -136 -144 0
151 136 -144 0
-151 136 144 0
-152 136 0
151 -152 -144 0
-151 -152 144 0
151 152 -136 144 0
-151 152 -136 -144 0
-153 136 0
151 -153 144 0
-151 -153 -144 0
151 153 -136 -144 0
-151 153 -136 144 0
-154 155 0
-154 151 0
-154 -136 0
154 -155 136 -151 0
155 -136 151 0
-155 136 151 0
-156 151 0
155 -156 -136 0
-155 -156 136 0
155 156 136 -151 0
-155 156 -136 -151 0
-157 151 0
155 -157 136 0
-155 -157 -136 0
155 157 -136 -151 0
-155 157 136 -151 0
-158 155 0
-158 -151 0
158 -155 151 0
159 155 -151 0
159 -155 151 0
-159 155 151 0
-159 -155 -151 0
-145 0
-155 0
-159 0
